c Generated map
c Size: 9 * 9, weights in range: 1 to 10, walls: False, with ratio 0.0
c dim 4 of 7
c
p sp 81 144
c graph contains 81 nodes and 144 arcs
c
a 1 10 7
a 10 1 7
a 1 2 2
a 2 1 2
a 2 11 6
a 11 2 6
a 2 3 8
a 3 2 8
a 3 12 6
a 12 3 6
a 3 4 7
a 4 3 7
a 4 13 4
a 13 4 4
a 4 5 8
a 5 4 8
a 5 14 8
a 14 5 8
a 5 6 10
a 6 5 10
a 6 15 5
a 15 6 5
a 6 7 2
a 7 6 2
a 7 16 6
a 16 7 6
a 7 8 9
a 8 7 9
a 8 17 7
a 17 8 7
a 8 9 5
a 9 8 5
a 9 18 5
a 18 9 5
a 10 19 3
a 19 10 3
a 10 11 9
a 11 10 9
a 11 20 7
a 20 11 7
a 11 12 6
a 12 11 6
a 12 21 4
a 21 12 4
a 12 13 4
a 13 12 4
a 13 22 4
a 22 13 4
a 13 14 10
a 14 13 10
a 14 23 4
a 23 14 4
a 14 15 1
a 15 14 1
a 15 24 5
a 24 15 5
a 15 16 4
a 16 15 4
a 16 25 7
a 25 16 7
a 16 17 9
a 17 16 9
a 17 26 3
a 26 17 3
a 17 18 5
a 18 17 5
a 18 27 4
a 27 18 4
a 19 28 6
a 28 19 6
a 19 20 8
a 20 19 8
a 20 29 4
a 29 20 4
a 20 21 10
a 21 20 10
a 21 30 1
a 30 21 1
a 21 22 4
a 22 21 4
a 22 31 8
a 31 22 8
a 22 23 4
a 23 22 4
a 23 32 6
a 32 23 6
a 23 24 1
a 24 23 1
a 24 33 2
a 33 24 2
a 24 25 4
a 25 24 4
a 25 34 6
a 34 25 6
a 25 26 4
a 26 25 4
a 26 35 9
a 35 26 9
a 26 27 1
a 27 26 1
a 27 36 9
a 36 27 9
a 28 37 3
a 37 28 3
a 28 29 10
a 29 28 10
a 29 38 8
a 38 29 8
a 29 30 7
a 30 29 7
a 30 39 5
a 39 30 5
a 30 31 1
a 31 30 1
a 31 40 10
a 40 31 10
a 31 32 10
a 32 31 10
a 32 41 6
a 41 32 6
a 32 33 6
a 33 32 6
a 33 42 1
a 42 33 1
a 33 34 6
a 34 33 6
a 34 43 4
a 43 34 4
a 34 35 7
a 35 34 7
a 35 44 1
a 44 35 1
a 35 36 9
a 36 35 9
a 36 45 6
a 45 36 6
a 37 46 3
a 46 37 3
a 37 38 4
a 38 37 4
a 38 47 7
a 47 38 7
a 38 39 1
a 39 38 1
a 39 48 6
a 48 39 6
a 39 40 4
a 40 39 4
a 40 49 10
a 49 40 10
a 40 41 7
a 41 40 7
a 41 50 2
a 50 41 2
a 41 42 3
a 42 41 3
a 42 51 1
a 51 42 1
a 42 43 9
a 43 42 9
a 43 52 7
a 52 43 7
a 43 44 9
a 44 43 9
a 44 53 5
a 53 44 5
a 44 45 9
a 45 44 9
a 45 54 7
a 54 45 7
a 46 55 10
a 55 46 10
a 46 47 2
a 47 46 2
a 47 56 5
a 56 47 5
a 47 48 2
a 48 47 2
a 48 57 5
a 57 48 5
a 48 49 10
a 49 48 10
a 49 58 3
a 58 49 3
a 49 50 7
a 50 49 7
a 50 59 6
a 59 50 6
a 50 51 5
a 51 50 5
a 51 60 10
a 60 51 10
a 51 52 5
a 52 51 5
a 52 61 1
a 61 52 1
a 52 53 2
a 53 52 2
a 53 62 1
a 62 53 1
a 53 54 7
a 54 53 7
a 54 63 7
a 63 54 7
a 55 64 10
a 64 55 10
a 55 56 7
a 56 55 7
a 56 65 6
a 65 56 6
a 56 57 4
a 57 56 4
a 57 66 5
a 66 57 5
a 57 58 10
a 58 57 10
a 58 67 3
a 67 58 3
a 58 59 3
a 59 58 3
a 59 68 6
a 68 59 6
a 59 60 1
a 60 59 1
a 60 69 3
a 69 60 3
a 60 61 10
a 61 60 10
a 61 70 10
a 70 61 10
a 61 62 9
a 62 61 9
a 62 71 1
a 71 62 1
a 62 63 9
a 63 62 9
a 63 72 8
a 72 63 8
a 64 73 7
a 73 64 7
a 64 65 8
a 65 64 8
a 65 74 8
a 74 65 8
a 65 66 8
a 66 65 8
a 66 75 7
a 75 66 7
a 66 67 9
a 67 66 9
a 67 76 8
a 76 67 8
a 67 68 6
a 68 67 6
a 68 77 7
a 77 68 7
a 68 69 1
a 69 68 1
a 69 78 8
a 78 69 8
a 69 70 4
a 70 69 4
a 70 79 5
a 79 70 5
a 70 71 10
a 71 70 10
a 71 80 10
a 80 71 10
a 71 72 10
a 72 71 10
a 72 81 3
a 81 72 3
a 73 74 1
a 74 73 1
a 74 75 4
a 75 74 4
a 75 76 3
a 76 75 3
a 76 77 2
a 77 76 2
a 77 78 2
a 78 77 2
a 78 79 3
a 79 78 3
a 79 80 1
a 80 79 1
a 80 81 3
a 81 80 3
